RT is False
Default write of storage_offers_DA.csv just to have a file (but constraint should be inactive)
Reading model...
...model read.
creating competitive generators file...
...competitive generators recorded.
Loading data...
.. day-ahead data with real-time VRE data read.
Compiling instance...
...instance created.
Creating Offer Mitigation (model will solve as dispatch if TRUE)...
Solving...

Welcome to IBM(R) ILOG(R) CPLEX(R) Interactive Optimizer 12.9.0.0
  with Simplex, Mixed Integer & Barrier Optimizers
5725-A06 5725-A29 5724-Y48 5724-Y49 5724-Y54 5724-Y55 5655-Y21
Copyright IBM Corp. 1988, 2019.  All Rights Reserved.

Type 'help' for a list of available commands.
Type 'help' followed by a command name for more
information on commands.

CPLEX> Logfile 'cplex.log' closed.
Logfile 'C:\Users\llavin\Desktop\test919\logs\tmpr3kvtk5g.cplex.log' open.
CPLEX> New value for parallel optimization mode: -1
CPLEX> New value for mixed integer optimality gap tolerance: 0.01
CPLEX> New value for integrality tolerance: 1e-09
CPLEX> New value for feasibility tolerance: 0.01
CPLEX> New value for deterministic time limit in ticks: 75000
CPLEX> Problem 'C:\Users\llavin\Desktop\test919\logs\tmpj9xanxbs.pyomo.lp' read.
Read time = 0.05 sec. (3.04 ticks)
CPLEX> Problem name         : C:\Users\llavin\Desktop\test919\logs\tmpj9xanxbs.pyomo.lp
Objective sense      : Minimize
Variables            :   26081  [Nneg: 1,  Box: 21616,  Free: 4464]
Objective nonzeros   :    2496
Linear constraints   :   27515  [Less: 14006,  Greater: 4416,  Equal: 9093]
  Nonzeros           :   89267
  RHS nonzeros       :   12269

Variables            : Min LB: -5000.000        Max UB: 1000000.       
Objective nonzeros   : Min   : 15.73158         Max   : 124.0997       
Linear constraints   :
  Nonzeros           : Min   : 0.8500000        Max   : 3000.000       
  RHS nonzeros       : Min   : 0.05833333       Max   : 5000.000       
CPLEX> CPXPARAM_Parallel                                -1
CPXPARAM_Simplex_Tolerances_Feasibility          0.01
CPXPARAM_DetTimeLimit                            75000
CPXPARAM_MIP_Tolerances_MIPGap                   0.01
CPXPARAM_MIP_Tolerances_Integrality              1.0000000000000001e-09
Parallel mode: opportunistic, using up to 32 threads for concurrent optimization.
Tried aggregator 1 time.
LP Presolve eliminated 21353 rows and 15460 columns.
Aggregator did 765 substitutions.
Reduced LP has 5397 rows, 9856 columns, and 31830 nonzeros.
Presolve time = 0.05 sec. (30.44 ticks)
Symmetry aggregator did 5565 additional substitutions.

Iteration log . . .
Iteration:     1   Dual objective     =             0.000000
Perturbation started.
Iteration:   101   Dual objective     =             0.000000
Iteration:   325   Dual objective     =             1.154316
Iteration:   596   Dual objective     =             1.745256
Iteration:   848   Dual objective     =             1.893561
Iteration:  1047   Dual objective     =             2.012144
Iteration:  1323   Dual objective     =             2.064129
Iteration:  1566   Dual objective     =             2.092510
Iteration:  1781   Dual objective     =             2.121031
Iteration:  1999   Dual objective     =             2.145526
Iteration:  2193   Dual objective     =         13152.933093
Iteration:  2456   Dual objective     =         41821.365667
Iteration:  2817   Dual objective     =         61250.802889
Removing perturbation.
Dual superbasis not built.
Using devex.

Primal simplex solved model.


Primal simplex - Optimal:  Objective =  6.1567677231e+04
Solution time =    0.17 sec.  Iterations = 1608 (1128)
Deterministic time = 78.91 ticks  (458.77 ticks/sec)

CPLEX> Solution written to file 'C:\Users\llavin\Desktop\test919\logs\tmprg19gz6l.cplex.sol'.
CPLEX> Exporting results... 
...storage offer mitigation file created
Converting model to MPEC...
...converted
NOTE: initial MIP solve with only storage competitive to get feasible solution
Solving...

Welcome to IBM(R) ILOG(R) CPLEX(R) Interactive Optimizer 12.9.0.0
  with Simplex, Mixed Integer & Barrier Optimizers
5725-A06 5725-A29 5724-Y48 5724-Y49 5724-Y54 5724-Y55 5655-Y21
Copyright IBM Corp. 1988, 2019.  All Rights Reserved.

Type 'help' for a list of available commands.
Type 'help' followed by a command name for more
information on commands.

CPLEX> Logfile 'cplex.log' closed.
Logfile 'C:\Users\llavin\Desktop\test919\logs\tmpqdk13mfi.cplex.log' open.
CPLEX> New value for parallel optimization mode: -1
CPLEX> New value for mixed integer optimality gap tolerance: 0.01
CPLEX> New value for integrality tolerance: 1e-09
CPLEX> New value for feasibility tolerance: 0.01
CPLEX> New value for deterministic time limit in ticks: 75000
CPLEX> Problem 'C:\Users\llavin\Desktop\test919\logs\tmpxjj2l5st.pyomo.lp' read.
Read time = 0.25 sec. (14.78 ticks)
CPLEX> Problem name         : C:\Users\llavin\Desktop\test919\logs\tmpxjj2l5st.pyomo.lp
Objective sense      : Maximize
Variables            :   53805  [Nneg: 1,  Box: 22000,  Free: 4464,
                                 Binary: 27340]
Objective nonzeros   :    8978
Linear constraints   :  123205  [Less: 41346,  Greater: 59096,  Equal: 22763]
  Nonzeros           :  291799
  RHS nonzeros       :   67417

Variables            : Min LB: -5000.000        Max UB: 1000000.       
Objective nonzeros   : Min   : 0.05833333       Max   : 833.9167       
Linear constraints   :
  Nonzeros           : Min   : 0.05833333       Max   : 1000000.       
  RHS nonzeros       : Min   : 0.05833333       Max   : 1000000.       
CPLEX> CPXPARAM_Parallel                                -1
CPXPARAM_Simplex_Tolerances_Feasibility          0.01
CPXPARAM_DetTimeLimit                            75000
CPXPARAM_MIP_Tolerances_MIPGap                   0.01
CPXPARAM_MIP_Tolerances_Integrality              1.0000000000000001e-09
Tried aggregator 3 times.
MIP Presolve eliminated 88612 rows and 18914 columns.
MIP Presolve added 3388 rows and 0 columns.
MIP Presolve modified 24893 coefficients.
Aggregator did 12988 substitutions.
Reduced MIP has 24993 rows, 21349 columns, and 71321 nonzeros.
Reduced MIP has 8421 binaries, 0 generals, 0 SOSs, and 0 indicators.
Presolve time = 0.28 sec. (173.60 ticks)
Probing fixed 378 vars, tightened 2840 bounds.
Probing time = 1.17 sec. (870.47 ticks)
Tried aggregator 2 times.
MIP Presolve eliminated 853 rows and 756 columns.
MIP Presolve modified 2190 coefficients.
Aggregator did 40 substitutions.
Reduced MIP has 24100 rows, 20553 columns, and 68739 nonzeros.
Reduced MIP has 8043 binaries, 0 generals, 0 SOSs, and 0 indicators.
Presolve time = 0.11 sec. (65.97 ticks)
Probing time = 0.05 sec. (15.84 ticks)
Clique table members: 6299.
MIP emphasis: balance optimality and feasibility.
MIP search method: dynamic search.
Parallel mode: opportunistic, using up to 32 threads.
Root relaxation solution time = 0.33 sec. (262.00 ticks)

        Nodes                                         Cuts/
   Node  Left     Objective  IInf  Best Integer    Best Bound    ItCnt     Gap

      0     0     3177.6862  1603                   3177.6862     5832         
*     0     0      integral     0     3177.6862     3177.6862     5832    0.00%
Elapsed time = 3.92 sec. (2821.02 ticks, tree = 0.01 MB, solutions = 1)

Root node processing (before b&c):
  Real time             =    3.92 sec. (2822.97 ticks)
Parallel b&c, 32 threads:
  Real time             =    0.00 sec. (0.00 ticks)
  Sync time (average)   =    0.00 sec.
  Wait time (average)   =    0.00 sec.
                          ------------
Total (root+branch&cut) =    3.92 sec. (2822.97 ticks)

Solution pool: 1 solution saved.

MIP - Integer optimal solution:  Objective =  3.1776861813e+03
Solution time =    3.95 sec.  Iterations = 5832  Nodes = 0
Deterministic time = 2823.12 ticks  (714.17 ticks/sec)

CPLEX> Incumbent solution written to file 'C:\Users\llavin\Desktop\test919\logs\tmpw0fv0ve6.cplex.sol'.
CPLEX> NOTE: no warmstart specified for MIP iteration, default behavior is true
NOTE: resolving with all competitive generators using storage-only solution to warmstart
Solving...

Welcome to IBM(R) ILOG(R) CPLEX(R) Interactive Optimizer 12.9.0.0
  with Simplex, Mixed Integer & Barrier Optimizers
5725-A06 5725-A29 5724-Y48 5724-Y49 5724-Y54 5724-Y55 5655-Y21
Copyright IBM Corp. 1988, 2019.  All Rights Reserved.

Type 'help' for a list of available commands.
Type 'help' followed by a command name for more
information on commands.

CPLEX> Logfile 'cplex.log' closed.
Logfile 'C:\Users\llavin\Desktop\test919\logs\tmp7ijb9tuo.cplex.log' open.
CPLEX> New value for parallel optimization mode: -1
CPLEX> New value for mixed integer optimality gap tolerance: 0.01
CPLEX> New value for integrality tolerance: 1e-09
CPLEX> New value for feasibility tolerance: 0.01
CPLEX> New value for deterministic time limit in ticks: 75000
CPLEX> Problem 'C:\Users\llavin\Desktop\test919\logs\tmp0go2geih.pyomo.lp' read.
Read time = 0.23 sec. (14.81 ticks)
CPLEX> MIP start file 'C:\Users\llavin\Desktop\test919\logs\tmp9t95b2_e.cplex.mst' read.
CPLEX> Problem name         : C:\Users\llavin\Desktop\test919\logs\tmp0go2geih.pyomo.lp
Objective sense      : Maximize
Variables            :   54525  [Nneg: 1,  Box: 22720,  Free: 4464,
                                 Binary: 27340]
Objective nonzeros   :    9674
Linear constraints   :  123205  [Less: 41346,  Greater: 59096,  Equal: 22763]
  Nonzeros           :  291799
  RHS nonzeros       :   67417

Variables            : Min LB: -5000.000        Max UB: 1000000.       
Objective nonzeros   : Min   : 0.05833333       Max   : 787.5750       
Linear constraints   :
  Nonzeros           : Min   : 0.05833333       Max   : 1000000.       
  RHS nonzeros       : Min   : 0.05833333       Max   : 1000000.       
CPLEX> CPXPARAM_Parallel                                -1
CPXPARAM_Simplex_Tolerances_Feasibility          0.01
CPXPARAM_DetTimeLimit                            75000
CPXPARAM_MIP_Tolerances_MIPGap                   0.01
CPXPARAM_MIP_Tolerances_Integrality              1.0000000000000001e-09
Warning:  No solution found from 1 MIP starts.
Retaining values of one MIP start for possible repair.
Tried aggregator 3 times.
MIP Presolve eliminated 88612 rows and 19634 columns.
MIP Presolve added 3388 rows and 0 columns.
MIP Presolve modified 24893 coefficients.
Aggregator did 12988 substitutions.
Reduced MIP has 24993 rows, 21349 columns, and 71321 nonzeros.
Reduced MIP has 8421 binaries, 0 generals, 0 SOSs, and 0 indicators.
Presolve time = 0.28 sec. (173.97 ticks)
Probing fixed 378 vars, tightened 2840 bounds.
Probing time = 1.19 sec. (870.47 ticks)
Tried aggregator 2 times.
MIP Presolve eliminated 853 rows and 756 columns.
MIP Presolve modified 2190 coefficients.
Aggregator did 40 substitutions.
Reduced MIP has 24100 rows, 20553 columns, and 68739 nonzeros.
Reduced MIP has 8043 binaries, 0 generals, 0 SOSs, and 0 indicators.
Presolve time = 0.09 sec. (65.97 ticks)
Probing time = 0.03 sec. (15.84 ticks)
Clique table members: 6299.
MIP emphasis: balance optimality and feasibility.
MIP search method: dynamic search.
Parallel mode: opportunistic, using up to 32 threads.
Root relaxation solution time = 0.34 sec. (265.65 ticks)

        Nodes                                         Cuts/
   Node  Left     Objective  IInf  Best Integer    Best Bound    ItCnt     Gap

      0     0   155993.6468  1680                 155993.6468     5815         
      0     0   152783.3555   579                   Cuts: 543     6132         
      0     0   152157.0016   525                   Cuts: 167     6254         
      0     0   152031.3456   501                    Cuts: 86     6313         
      0     0   151918.9404   461                    Cuts: 78     6354         
      0     0   149015.7320   424                    Cuts: 72     6469         
      0     0   148743.9261   415                    Cuts: 53     6502         
      0     0   148743.9261   405                    Cuts: 37     6515         
      0     0   148743.9261   398                    Cuts: 26     6525         
      0     0   148743.9261   394                    Cuts: 26     6533         
Repair heuristic found nothing.
      0    28    infeasible                          Cuts: 46     9167         
Elapsed time = 10.92 sec. (6465.27 ticks, tree = 0.02 MB, solutions = 0)
    289    58    infeasible                       109904.3305    13447         
    938    78    16174.8772   331                 101649.2307    16417         
   1663   538    -6231.3581   307                 101649.2307    28172         
   2487   744    -5503.9237   242                 101649.2307    30562         
   3379  1220    -1204.8251   249                 101649.2307    37936         
   4178  2165    -2287.2522   199                 101649.2307    45033         
   5251  2505  -121906.6937   311                 101649.2307    46606         
   6345  2993    10997.7647   305                 101649.2307    50541         
   7268  4638  -104023.3929   301                 101649.2307    54368         
*  8046+ 3615                        -1214.9802   101649.2307              --- 
Elapsed time = 24.59 sec. (8824.96 ticks, tree = 25.37 MB, solutions = 2)
  11891  3201     8684.2113   183     2517.0517   100852.6031    62071     --- 
  12372  5613     3177.6862     3     2517.0517     4978.5719    73233   97.79%
* 12437    49      integral     0     3177.6862     3177.6862    73616    0.00%
* 12438    50      integral     0     3177.6862     3177.6862    73607    0.00%

Cover cuts applied:  12
Implied bound cuts applied:  1
Flow cuts applied:  41

Root node processing (before b&c):
  Real time             =    9.41 sec. (6452.35 ticks)
Parallel b&c, 32 threads:
  Real time             =   28.69 sec. (7998.00 ticks)
  Sync time (average)   =    1.55 sec.
  Wait time (average)   =    0.23 sec.
                          ------------
Total (root+branch&cut) =   38.09 sec. (14450.34 ticks)

Solution pool: 9 solutions saved.

MIP - Integer optimal solution:  Objective =  3.1776861816e+03
Solution time =   38.11 sec.  Iterations = 74684  Nodes = 12774
Deterministic time = 14450.50 ticks  (379.19 ticks/sec)

CPLEX> Incumbent solution written to file 'C:\Users\llavin\Desktop\test919\logs\tmpu9cyivf7.cplex.sol'.
CPLEX> Exporting results... 
